31.0 73.0 0
11.0 67.0 19
52.0 96.0 2
81.0 29.0 12
97.0 62.0 20
71.0 5.0 6
6.0 56.0 17
48.0 50.0 8
91.0 17.0 14
49.0 68.0 2
85.0 29.0 8
11.0 16.0 5
74.0 98.0 7
56.0 37.0 22
13.0 81.0 14
66.0 80.0 17
96.0 55.0 23
36.0 17.0 15
32.0 23.0 21
6.0 13.0 2
64.0 30.0 24
87.0 5.0 10
75.0 61.0 20
40.0 72.0 6
1.0 44.0 21
60.0 95.0 10
27.0 49.0 6
15.0 33.0 13
46.0 53.0 21
28.0 43.0 24
3.0 9.0 11
1.0 100.0 16
53.0 46.0 8
98.0 8.0 11
6.0 25.0 11
7.0 81.0 22
96.0 88.0 17
2.0 35.0 22
32.0 94.0 17
95.0 94.0 8
9.0 11.0 23
96.0 16.0 5
90.0 68.0 3
33.0 31.0 18
6.0 59.0 12
